
Reading -> 80_5_10_8-

Academic license - for non-commercial use only - expires 2021-02-07
Gurobi Optimizer version 9.1.0 build v9.1.0rc0 (linux64)
Thread count: 2 physical cores, 4 logical processors, using up to 4 threads
Optimize a model with 33280 rows, 32010 columns and 160000 nonzeros
Model fingerprint: 0x02b2dd6e
Variable types: 0 continuous, 32010 integer (32010 binary)
Coefficient statistics:
  Matrix range     [1e+00, 1e+00]
  Objective range  [1e+00, 1e+00]
  Bounds range     [1e+00, 1e+00]
  RHS range        [1e+00, 2e+00]
Found heuristic solution: objective 1.0000000
Presolve removed 32041 rows and 1640 columns
Presolve time: 0.35s
Presolved: 1239 rows, 30370 columns, 92239 nonzeros
Variable types: 0 continuous, 30370 integer (30370 binary)

Root relaxation: objective 8.400000e+01, 3639 iterations, 0.89 seconds

    Nodes    |    Current Node    |     Objective Bounds      |     Work
 Expl Unexpl |  Obj  Depth IntInf | Incumbent    BestBd   Gap | It/Node Time

*    0     0               0      84.0000000   84.00000  0.00%     -    1s

Explored 0 nodes (3639 simplex iterations) in 1.31 seconds
Thread count was 4 (of 4 available processors)

Solution count 2: 84 1 

Optimal solution found (tolerance 1.00e-04)
Best objective 8.400000000000e+01, best bound 8.400000000000e+01, gap 0.0000%
X_0_3_5_0 1
X_0_4_3_5 1
X_1_1_5_5 1
X_1_3_3_5 1
X_2_3_1_4 1
X_2_3_6_4 1
X_3_0_6_2 1
X_3_3_5_2 1
X_4_0_5_1 1
X_4_1_3_5 1
X_5_1_6_6 1
X_5_3_3_6 1
X_6_3_6_3 1
X_6_4_1_6 1
X_7_1_3_3 1
X_7_4_5_6 1
X_8_2_1_2 1
X_8_3_3_2 1
X_9_1_1_4 1
X_9_3_3_4 1
X_10_3_1_2 1
X_10_3_3_0 1
X_11_1_3_2 1
X_11_3_1_3 1
X_12_0_1_7 1
X_12_3_6_7 1
X_13_0_5_7 1
X_13_4_1_0 1
X_14_1_1_6 1
X_14_2_3_6 1
X_15_3_3_7 1
X_15_4_6_3 1
X_16_0_5_5 1
X_16_4_1_5 1
X_17_0_1_5 1
X_17_2_6_4 1
X_18_1_5_1 1
X_18_3_3_1 1
X_19_0_6_6 1
X_19_3_3_3 1
X_20_1_5_2 1
X_20_3_6_2 1
X_21_0_6_7 1
X_21_3_1_7 1
X_22_3_6_1 1
X_22_4_3_1 1
X_23_2_3_1 1
X_23_2_5_1 1
X_24_0_5_2 1
X_24_4_1_2 1
X_25_0_5_0 1
X_25_4_6_0 1
X_26_2_1_7 1
X_26_2_6_5 1
X_27_0_1_2 1
X_27_2_6_2 1
X_28_2_5_4 1
X_28_4_3_4 1
X_29_1_6_5 1
X_29_3_1_5 1
X_30_0_3_4 1
X_30_0_5_6 1
X_31_1_6_1 1
X_31_3_5_5 1
X_32_3_1_1 1
X_32_4_6_5 1
X_33_0_3_0 1
X_33_2_5_0 1
X_34_0_3_7 1
X_34_2_6_6 1
X_35_0_3_2 1
X_35_4_6_2 1
X_36_0_1_3 1
X_36_0_5_3 1
X_37_3_5_3 1
X_37_4_1_3 1
X_38_0_6_3 1
X_38_2_5_2 1
X_39_2_3_5 1
X_39_2_6_7 1
X_40_1_1_3 1
X_40_1_3_6 1
X_41_1_3_0 1
X_41_1_5_4 1
X_42_3_1_6 1
X_42_4_6_6 1
X_43_0_6_0 1
X_43_3_1_0 1
X_44_1_6_3 1
X_44_2_1_5 1
X_45_4_1_1 1
X_45_4_6_1 1
X_46_2_1_1 1
X_46_2_6_1 1
X_47_1_5_0 1
X_47_2_3_0 1
X_48_1_1_0 1
X_48_4_3_7 1
X_49_1_1_2 1
X_49_1_6_2 1
X_50_0_1_1 1
X_50_4_5_1 1
X_51_2_6_3 1
X_51_4_3_3 1
X_52_2_3_7 1
X_52_2_5_5 1
X_53_0_5_4 1
X_53_1_3_4 1
X_54_1_1_7 1
X_54_2_6_0 1
X_55_1_1_5 1
X_55_1_6_0 1
X_56_0_6_4 1
X_56_4_5_7 1
X_57_1_5_7 1
X_57_1_6_7 1
X_58_1_6_4 1
X_58_4_5_4 1
X_59_0_3_5 1
X_59_3_5_7 1
X_60_0_3_6 1
X_60_2_5_6 1
X_61_1_3_7 1
X_61_2_1_4 1
X_62_2_3_4 1
X_62_4_6_4 1
X_63_2_5_3 1
X_63_4_1_7 1
X_64_1_5_6 1
X_64_2_1_6 1
X_65_0_6_5 1
X_65_4_3_2 1
X_66_0_1_6 1
X_66_3_5_6 1
X_67_0_6_1 1
X_67_3_5_1 1
X_68_3_5_4 1
X_68_4_1_4 1
X_69_2_1_3 1
X_69_2_3_3 1
X_70_3_6_0 1
X_70_4_5_0 1
X_71_2_3_2 1
X_71_4_5_2 1
X_72_3_6_5 1
X_72_4_5_5 1
X_73_0_1_0 1
X_73_4_3_0 1
X_74_0_1_4 1
X_74_4_5_3 1
X_75_2_5_7 1
X_75_4_6_7 1
X_76_0_3_3 1
X_76_1_5_3 1
X_77_1_1_1 1
X_77_1_3_1 1
X_78_0_3_1 1
X_78_2_1_0 1
X_79_3_6_6 1
X_79_4_3_6 1
Y_1 1
Y_3 1
Y_5 1
Y_6 1
Obj: 84
